p edge 1189 1114
e 1 2
e 1 3
e 1 4
e 1 5
e 1 6
e 1 7
e 1 8
e 1 9
e 1 10
e 1 11
e 1 12
e 1 13
e 1 14
e 1 15
e 1 16
e 1 17
e 18 19
e 18 20
e 18 21
e 18 22
e 18 23
e 18 24
e 18 25
e 18 26
e 18 27
e 18 28
e 29 30
e 29 31
e 29 32
e 29 33
e 29 34
e 29 35
e 29 36
e 29 37
e 29 38
e 29 39
e 29 40
e 29 41
e 42 43
e 42 44
e 42 45
e 42 46
e 42 47
e 42 48
e 42 49
e 42 50
e 42 51
e 42 52
e 42 53
e 42 54
e 55 56
e 55 57
e 55 58
e 55 59
e 55 60
e 55 61
e 55 62
e 55 63
e 55 64
e 55 65
e 55 66
e 55 67
e 55 68
e 55 69
e 55 70
e 55 71
e 55 72
e 73 74
e 73 75
e 73 76
e 73 77
e 73 78
e 73 79
e 73 80
e 73 81
e 73 82
e 73 83
e 73 84
e 85 86
e 85 87
e 85 88
e 85 89
e 85 90
e 85 91
e 85 92
e 85 93
e 85 94
e 85 95
e 85 96
e 85 97
e 85 98
e 85 99
e 85 100
e 85 101
e 85 102
e 103 104
e 103 105
e 103 106
e 103 107
e 103 108
e 103 109
e 103 110
e 103 111
e 103 112
e 103 113
e 103 114
e 115 116
e 115 117
e 115 118
e 115 119
e 115 120
e 115 121
e 115 122
e 115 123
e 115 124
e 115 125
e 115 126
e 115 127
e 115 128
e 115 129
e 130 131
e 130 132
e 130 133
e 130 134
e 130 135
e 130 136
e 130 137
e 130 138
e 130 139
e 130 140
e 130 141
e 130 142
e 130 143
e 130 144
e 130 145
e 130 146
e 147 148
e 147 149
e 147 150
e 147 151
e 147 152
e 147 153
e 147 154
e 147 155
e 147 156
e 147 157
e 147 158
e 147 159
e 147 160
e 147 161
e 147 162
e 147 163
e 147 164
e 147 165
e 147 166
e 167 168
e 167 169
e 167 170
e 167 171
e 167 172
e 167 173
e 167 174
e 167 175
e 167 176
e 167 177
e 167 178
e 167 179
e 167 180
e 167 181
e 167 182
e 183 184
e 183 185
e 183 186
e 183 187
e 183 188
e 183 189
e 183 190
e 183 191
e 183 192
e 183 193
e 183 194
e 183 195
e 183 196
e 183 197
e 198 199
e 198 200
e 198 201
e 198 202
e 198 203
e 198 204
e 198 205
e 198 206
e 198 207
e 198 208
e 198 209
e 198 210
e 198 211
e 212 213
e 212 214
e 212 215
e 212 216
e 212 217
e 212 218
e 212 219
e 212 220
e 212 221
e 212 222
e 212 223
e 212 224
e 212 225
e 212 226
e 212 227
e 228 229
e 228 230
e 228 231
e 228 232
e 228 233
e 228 234
e 228 235
e 228 236
e 228 237
e 228 238
e 228 239
e 240 241
e 240 242
e 240 243
e 240 244
e 240 245
e 240 246
e 240 247
e 240 248
e 240 249
e 240 250
e 240 251
e 240 252
e 240 253
e 240 254
e 240 255
e 240 256
e 240 257
e 240 258
e 259 260
e 259 261
e 259 262
e 259 263
e 259 264
e 259 265
e 259 266
e 259 267
e 259 268
e 259 269
e 259 270
e 271 272
e 271 273
e 271 274
e 271 275
e 271 276
e 271 277
e 271 278
e 271 279
e 271 280
e 271 281
e 271 282
e 271 283
e 271 284
e 271 285
e 271 286
e 287 288
e 287 289
e 287 290
e 287 291
e 287 292
e 287 293
e 287 294
e 287 295
e 287 296
e 287 297
e 287 298
e 287 299
e 287 300
e 287 301
e 287 302
e 287 303
e 287 304
e 287 305
e 287 306
e 307 308
e 307 309
e 307 310
e 307 311
e 307 312
e 307 313
e 307 314
e 307 315
e 307 316
e 307 317
e 307 318
e 307 319
e 307 320
e 307 321
e 322 323
e 322 324
e 322 325
e 322 326
e 322 327
e 322 328
e 322 329
e 322 330
e 322 331
e 322 332
e 322 333
e 334 335
e 334 336
e 334 337
e 334 338
e 334 339
e 334 340
e 334 341
e 334 342
e 334 343
e 334 344
e 334 345
e 334 346
e 334 347
e 334 348
e 334 349
e 350 351
e 350 352
e 350 353
e 350 354
e 350 355
e 350 356
e 350 357
e 350 358
e 350 359
e 350 360
e 350 361
e 350 362
e 363 364
e 363 365
e 363 366
e 363 367
e 363 368
e 363 369
e 363 370
e 363 371
e 363 372
e 363 373
e 363 374
e 363 375
e 363 376
e 363 377
e 363 378
e 363 379
e 363 380
e 363 381
e 382 383
e 382 384
e 382 385
e 382 386
e 382 387
e 382 388
e 382 389
e 382 390
e 382 391
e 382 392
e 382 393
e 382 394
e 382 395
e 382 396
e 397 398
e 397 399
e 397 400
e 397 401
e 397 402
e 397 403
e 397 404
e 397 405
e 397 406
e 397 407
e 397 408
e 397 409
e 397 410
e 397 411
e 397 412
e 413 414
e 413 415
e 413 416
e 413 417
e 413 418
e 413 419
e 413 420
e 413 421
e 413 422
e 413 423
e 413 424
e 413 425
e 413 426
e 413 427
e 413 428
e 429 430
e 429 431
e 429 432
e 429 433
e 429 434
e 429 435
e 429 436
e 429 437
e 429 438
e 429 439
e 429 440
e 429 441
e 429 442
e 429 443
e 444 445
e 444 446
e 444 447
e 444 448
e 444 449
e 444 450
e 444 451
e 444 452
e 444 453
e 444 454
e 444 455
e 444 456
e 444 457
e 444 458
e 444 459
e 444 460
e 444 461
e 444 462
e 463 464
e 463 465
e 463 466
e 463 467
e 463 468
e 463 469
e 463 470
e 463 471
e 463 472
e 463 473
e 463 474
e 463 475
e 463 476
e 463 477
e 463 478
e 463 479
e 463 480
e 463 481
e 463 482
e 483 484
e 483 485
e 483 486
e 483 487
e 483 488
e 483 489
e 483 490
e 483 491
e 483 492
e 483 493
e 483 494
e 495 496
e 495 497
e 495 498
e 495 499
e 495 500
e 495 501
e 495 502
e 495 503
e 495 504
e 495 505
e 495 506
e 495 507
e 495 508
e 495 509
e 495 510
e 495 511
e 495 512
e 495 513
e 495 514
e 495 515
e 516 517
e 516 518
e 516 519
e 516 520
e 516 521
e 516 522
e 516 523
e 516 524
e 516 525
e 516 526
e 516 527
e 516 528
e 516 529
e 516 530
e 516 531
e 516 532
e 516 533
e 516 534
e 516 535
e 516 536
e 537 538
e 537 539
e 537 540
e 537 541
e 537 542
e 537 543
e 537 544
e 537 545
e 537 546
e 537 547
e 537 548
e 537 549
e 537 550
e 537 551
e 537 552
e 537 553
e 537 554
e 555 556
e 555 557
e 555 558
e 555 559
e 555 560
e 555 561
e 555 562
e 555 563
e 555 564
e 555 565
e 555 566
e 555 567
e 555 568
e 555 569
e 555 570
e 555 571
e 555 572
e 555 573
e 555 574
e 575 576
e 575 577
e 575 578
e 575 579
e 575 580
e 575 581
e 575 582
e 575 583
e 575 584
e 575 585
e 575 586
e 575 587
e 575 588
e 575 589
e 575 590
e 575 591
e 575 592
e 575 593
e 575 594
e 595 596
e 595 597
e 595 598
e 595 599
e 595 600
e 595 601
e 595 602
e 595 603
e 595 604
e 595 605
e 595 606
e 595 607
e 608 609
e 608 610
e 608 611
e 608 612
e 608 613
e 608 614
e 608 615
e 608 616
e 608 617
e 608 618
e 608 619
e 608 620
e 608 621
e 608 622
e 608 623
e 608 624
e 625 626
e 625 627
e 625 628
e 625 629
e 625 630
e 625 631
e 625 632
e 625 633
e 625 634
e 625 635
e 636 637
e 636 638
e 636 639
e 636 640
e 636 641
e 636 642
e 636 643
e 636 644
e 636 645
e 636 646
e 636 647
e 636 648
e 636 649
e 636 650
e 636 651
e 636 652
e 653 654
e 653 655
e 653 656
e 653 657
e 653 658
e 653 659
e 653 660
e 653 661
e 653 662
e 653 663
e 653 664
e 653 665
e 666 667
e 666 668
e 666 669
e 666 670
e 666 671
e 666 672
e 666 673
e 666 674
e 666 675
e 666 676
e 666 677
e 678 679
e 678 680
e 678 681
e 678 682
e 678 683
e 678 684
e 678 685
e 678 686
e 678 687
e 678 688
e 678 689
e 678 690
e 678 691
e 678 692
e 678 693
e 694 695
e 694 696
e 694 697
e 694 698
e 694 699
e 694 700
e 694 701
e 694 702
e 694 703
e 694 704
e 694 705
e 694 706
e 707 708
e 707 709
e 707 710
e 707 711
e 707 712
e 707 713
e 707 714
e 707 715
e 707 716
e 707 717
e 707 718
e 707 719
e 707 720
e 707 721
e 707 722
e 707 723
e 724 725
e 724 726
e 724 727
e 724 728
e 724 729
e 724 730
e 724 731
e 724 732
e 724 733
e 724 734
e 735 736
e 735 737
e 735 738
e 735 739
e 735 740
e 735 741
e 735 742
e 735 743
e 735 744
e 735 745
e 735 746
e 735 747
e 735 748
e 735 749
e 735 750
e 735 751
e 735 752
e 735 753
e 735 754
e 735 755
e 756 757
e 756 758
e 756 759
e 756 760
e 756 761
e 756 762
e 756 763
e 756 764
e 756 765
e 756 766
e 756 767
e 756 768
e 756 769
e 756 770
e 756 771
e 756 772
e 756 773
e 756 774
e 756 775
e 756 776
e 777 778
e 777 779
e 777 780
e 777 781
e 777 782
e 777 783
e 777 784
e 777 785
e 777 786
e 777 787
e 777 788
e 789 790
e 789 791
e 789 792
e 789 793
e 789 794
e 789 795
e 789 796
e 789 797
e 789 798
e 789 799
e 789 800
e 789 801
e 789 802
e 789 803
e 789 804
e 789 805
e 789 806
e 807 808
e 807 809
e 807 810
e 807 811
e 807 812
e 807 813
e 807 814
e 807 815
e 807 816
e 807 817
e 807 818
e 807 819
e 820 821
e 820 822
e 820 823
e 820 824
e 820 825
e 820 826
e 820 827
e 820 828
e 820 829
e 820 830
e 820 831
e 820 832
e 820 833
e 820 834
e 820 835
e 836 837
e 836 838
e 836 839
e 836 840
e 836 841
e 836 842
e 836 843
e 836 844
e 836 845
e 836 846
e 836 847
e 836 848
e 849 850
e 849 851
e 849 852
e 849 853
e 849 854
e 849 855
e 849 856
e 849 857
e 849 858
e 849 859
e 849 860
e 849 861
e 849 862
e 849 863
e 849 864
e 865 866
e 865 867
e 865 868
e 865 869
e 865 870
e 865 871
e 865 872
e 865 873
e 865 874
e 865 875
e 865 876
e 865 877
e 865 878
e 865 879
e 865 880
e 865 881
e 865 882
e 865 883
e 865 884
e 885 886
e 885 887
e 885 888
e 885 889
e 885 890
e 885 891
e 885 892
e 885 893
e 885 894
e 885 895
e 885 896
e 885 897
e 885 898
e 885 899
e 885 900
e 885 901
e 885 902
e 885 903
e 904 905
e 904 906
e 904 907
e 904 908
e 904 909
e 904 910
e 904 911
e 904 912
e 904 913
e 904 914
e 904 915
e 904 916
e 904 917
e 904 918
e 904 919
e 904 920
e 904 921
e 922 923
e 922 924
e 922 925
e 922 926
e 922 927
e 922 928
e 922 929
e 922 930
e 922 931
e 922 932
e 922 933
e 922 934
e 935 936
e 935 937
e 935 938
e 935 939
e 935 940
e 935 941
e 935 942
e 935 943
e 935 944
e 935 945
e 935 946
e 935 947
e 948 949
e 948 950
e 948 951
e 948 952
e 948 953
e 948 954
e 948 955
e 948 956
e 948 957
e 948 958
e 948 959
e 948 960
e 948 961
e 948 962
e 963 964
e 963 965
e 963 966
e 963 967
e 963 968
e 963 969
e 963 970
e 963 971
e 963 972
e 963 973
e 963 974
e 963 975
e 963 976
e 963 977
e 963 978
e 963 979
e 980 981
e 980 982
e 980 983
e 980 984
e 980 985
e 980 986
e 980 987
e 980 988
e 980 989
e 980 990
e 980 991
e 980 992
e 980 993
e 980 994
e 995 996
e 995 997
e 995 998
e 995 999
e 995 1000
e 995 1001
e 995 1002
e 995 1003
e 995 1004
e 995 1005
e 995 1006
e 995 1007
e 995 1008
e 995 1009
e 995 1010
e 995 1011
e 995 1012
e 1013 1014
e 1013 1015
e 1013 1016
e 1013 1017
e 1013 1018
e 1013 1019
e 1013 1020
e 1013 1021
e 1013 1022
e 1013 1023
e 1013 1024
e 1013 1025
e 1013 1026
e 1013 1027
e 1013 1028
e 1013 1029
e 1013 1030
e 1013 1031
e 1013 1032
e 1013 1033
e 1034 1035
e 1034 1036
e 1034 1037
e 1034 1038
e 1034 1039
e 1034 1040
e 1034 1041
e 1034 1042
e 1034 1043
e 1034 1044
e 1034 1045
e 1034 1046
e 1034 1047
e 1034 1048
e 1034 1049
e 1034 1050
e 1034 1051
e 1034 1052
e 1053 1054
e 1053 1055
e 1053 1056
e 1053 1057
e 1053 1058
e 1053 1059
e 1053 1060
e 1053 1061
e 1053 1062
e 1053 1063
e 1053 1064
e 1053 1065
e 1053 1066
e 1053 1067
e 1068 1069
e 1068 1070
e 1068 1071
e 1068 1072
e 1068 1073
e 1068 1074
e 1068 1075
e 1068 1076
e 1068 1077
e 1068 1078
e 1068 1079
e 1068 1080
e 1068 1081
e 1082 1083
e 1082 1084
e 1082 1085
e 1082 1086
e 1082 1087
e 1082 1088
e 1082 1089
e 1082 1090
e 1082 1091
e 1082 1092
e 1082 1093
e 1082 1094
e 1082 1095
e 1082 1096
e 1082 1097
e 1082 1098
e 1082 1099
e 1100 1101
e 1100 1102
e 1100 1103
e 1100 1104
e 1100 1105
e 1100 1106
e 1100 1107
e 1100 1108
e 1100 1109
e 1100 1110
e 1100 1111
e 1100 1112
e 1100 1113
e 1100 1114
e 1100 1115
e 1116 1117
e 1116 1118
e 1116 1119
e 1116 1120
e 1116 1121
e 1116 1122
e 1116 1123
e 1116 1124
e 1116 1125
e 1116 1126
e 1116 1127
e 1116 1128
e 1116 1129
e 1116 1130
e 1116 1131
e 1116 1132
e 1133 1134
e 1133 1135
e 1133 1136
e 1133 1137
e 1133 1138
e 1133 1139
e 1133 1140
e 1133 1141
e 1133 1142
e 1133 1143
e 1133 1144
e 1133 1145
e 1133 1146
e 1147 1148
e 1147 1149
e 1147 1150
e 1147 1151
e 1147 1152
e 1147 1153
e 1147 1154
e 1147 1155
e 1147 1156
e 1147 1157
e 1147 1158
e 1147 1159
e 1147 1160
e 1147 1161
e 1147 1162
e 1163 1164
e 1163 1165
e 1163 1166
e 1163 1167
e 1163 1168
e 1163 1169
e 1163 1170
e 1163 1171
e 1163 1172
e 1163 1173
e 1163 1174
e 1175 1176
e 1175 1177
e 1175 1178
e 1175 1179
e 1175 1180
e 1175 1181
e 1175 1182
e 1175 1183
e 1175 1184
e 1175 1185
e 1175 1186
e 1175 1187
e 1175 1188
e 1175 1189
